SDVRP instances/custom_instances/p01_20_split0.vrp
NAME:p01_20_split
BEST_KNOWN: 0
COMMENT: 0
DIMENSION: 207
CAPACITY: 160
EDGE_WEIGHT_FORMAT: FUNCTION
EDGE_WEIGHT_TYPE: EXACT_2D
NODE_COORD_SECTION
1 0.00000 0.00000
2 43 -8
3 43 -8
4 43 -8
5 43 -8
6 11 4
7 11 4
8 35 48
9 35 48
10 35 48
11 -36 -20
12 -36 -20
13 -36 -20
14 -32 8
15 -32 8
16 -32 8
17 -32 8
18 -32 8
19 -32 8
20 -32 8
21 -46 41
22 -46 41
23 -46 41
24 -46 41
25 42 -14
26 42 -14
27 -50 -6
28 -50 -6
29 -50 -6
30 -50 -6
31 -50 -6
32 -50 -6
33 -19 6
34 -19 6
35 -19 6
36 3 -45
37 3 -45
38 3 -45
39 3 -45
40 3 -45
41 -2 -21
42 -2 -21
43 -11 -35
44 -11 -35
45 -11 -35
46 -50 -32
47 -50 -32
48 -50 -32
49 -50 -32
50 -50 -32
51 34 -14
52 34 -14
53 34 -14
54 34 -14
55 6 22
56 6 22
57 6 22
58 6 22
59 6 22
60 6 22
61 7 -21
62 7 -21
63 7 -21
64 7 -21
65 49 0
66 49 0
67 49 0
68 38 -4
69 38 -4
70 38 -4
71 38 -4
72 38 -4
73 30 21
74 30 21
75 30 21
76 -7 -8
77 -7 -8
78 -7 -8
79 0 1
80 0 1
81 0 1
82 0 1
83 0 1
84 -20 38
85 -20 38
86 -20 38
87 -20 38
88 -20 38
89 -20 38
90 -19 -20
91 -19 -20
92 -19 -20
93 -19 -20
94 50 22
95 50 22
96 17 40
97 17 40
98 -4 42
99 -4 42
100 -4 42
101 -4 42
102 -4 42
103 -4 42
104 -10 10
105 -10 10
106 -10 10
107 -10 10
108 -12 7
109 -12 7
110 -12 7
111 2 37
112 2 37
113 2 37
114 -38 -6
115 -38 -6
116 -38 -6
117 -38 -6
118 -38 -6
119 -38 -6
120 9 50
121 9 50
122 9 50
123 -6 -22
124 -6 -22
125 -6 -22
126 -6 -22
127 -6 -22
128 16 15
129 16 15
130 16 15
131 16 15
132 16 15
133 16 15
134 -6 -39
135 -6 -39
136 -6 -39
137 24 -7
138 24 -7
139 24 -7
140 24 -7
141 36 13
142 36 13
143 36 13
144 -4 40
145 -4 40
146 -4 40
147 -3 -13
148 -3 -13
149 -3 -13
150 23 3
151 23 3
152 23 3
153 23 3
154 23 3
155 23 3
156 14 18
157 14 18
158 14 18
159 14 18
160 14 18
161 14 18
162 14 18
163 4 -30
164 4 -30
165 4 -30
166 4 -30
167 4 -30
168 4 -30
169 4 -30
170 -23 -13
171 -23 -13
172 -23 -13
173 -23 -13
174 -23 -13
175 -23 -13
176 -23 -13
177 5 11
178 5 11
179 5 11
180 46 48
181 46 48
182 46 48
183 46 48
184 46 48
185 46 48
186 -36 20
187 -36 20
188 -36 20
189 26 -42
190 26 -42
191 26 -42
192 -11 -37
193 -11 -37
194 -11 -37
195 7 -7
196 7 -7
197 7 -7
198 7 -7
199 20 44
200 20 44
201 20 44
202 20 44
203 20 44
204 20 44
205 20 44
206 -3 8
207 -3 8
DEMAND_SECTION
1 0
2 32
3 8
4 2
5 2
6 32
7 2
8 32
9 8
10 2
11 32
12 8
13 2
14 32
15 32
16 8
17 2
18 2
19 2
20 1
21 32
22 2
23 2
24 1
25 32
26 8
27 32
28 16
29 8
30 2
31 2
32 2
33 32
34 2
35 2
36 32
37 32
38 2
39 2
40 1
41 16
42 8
43 32
44 32
45 1
46 16
47 2
48 2
49 2
50 1
51 32
52 32
53 8
54 1
55 16
56 8
57 2
58 2
59 2
60 1
61 32
62 16
63 2
64 2
65 32
66 2
67 1
68 16
69 8
70 2
71 2
72 2
73 16
74 8
75 1
76 32
77 32
78 2
79 32
80 8
81 2
82 2
83 2
84 32
85 16
86 2
87 2
88 2
89 1
90 32
91 2
92 2
93 2
94 32
95 1
96 32
97 1
98 32
99 16
100 8
101 2
102 2
103 1
104 32
105 16
106 2
107 2
108 32
109 32
110 1
111 32
112 2
113 2
114 32
115 8
116 2
117 2
118 2
119 1
120 32
121 2
122 2
123 32
124 32
125 8
126 2
127 1
128 32
129 32
130 8
131 2
132 2
133 1
134 32
135 2
136 1
137 32
138 32
139 8
140 2
141 16
142 8
143 1
144 32
145 32
146 2
147 32
148 8
149 2
150 16
151 8
152 2
153 2
154 2
155 1
156 32
157 32
158 8
159 2
160 2
161 2
162 1
163 32
164 16
165 8
166 2
167 2
168 2
169 1
170 32
171 16
172 8
173 2
174 2
175 2
176 1
177 32
178 16
179 8
180 32
181 32
182 8
183 2
184 2
185 1
186 16
187 2
188 2
189 32
190 8
191 1
192 32
193 32
194 8
195 32
196 32
197 2
198 2
199 32
200 16
201 8
202 2
203 2
204 2
205 1
206 32
207 8
DEPOT_SECTION
1
-1
EOF