SDVRP instances/custom_instances/p01_20_split0.sol
206 -5 6 154 153 152 149 150 151 137 138 139 136 -32 185 187 186 20 22 21 23 87 88 85 84 86 83 177 -33 34 14 13 17 19 18 16 15 116 118 117 114 113 169 -40 42 193 192 191 44 43 125 -41 135 134 133 36 35 38 37 39 189 190 188 -53 51 50 52 24 25 4 1 3 2 69 -55 54 112 111 119 120 121 198 203 199 202 200 204 201 96 95 -58 57 56 8 7 9 180 181 183 179 184 182 93 94 -59 110 102 101 97 100 98 99 144 143 145 -60 63 61 62 163 167 166 164 165 162 168 -68 70 71 67 66 65 64 142 140 141 72 73 74 129 127 132 -75 77 76 194 196 197 195 -78 82 81 -79 80 -91 89 90 92 122 126 123 124 146 148 147 -109 108 107 106 105 103 104 205 206 -115 26 31 29 28 27 30 48 47 49 45 46 12 11 10 175 174 172 171 173 170 -131 128 130 160 155 158 161 156 159 157 178 176 0 





OBJ=
1441.244
BEST_KNOWN=
0.000